
Gurobi 12.0.2 (linux64, C++) logging started Thu Jun 19 08:00:20 2025

Set parameter LogFile to value "log/instances/scenario4/not_correlated_sc4/500/kpfs_8.txt.log"

Gurobi 12.0.2 (linux64, C++) logging started Thu Jun 19 08:01:43 2025

Set parameter LogFile to value "log/instances/scenario4/not_correlated_sc4/500/kpfs_8.txt.log"

Gurobi 12.0.2 (linux64, C++) logging started Thu Jun 19 08:02:54 2025

Set parameter LogFile to value "log/instances/scenario4/not_correlated_sc4/500/kpfs_8.txt.log"

Gurobi 12.0.2 (linux64, C++) logging started Thu Jun 19 08:03:58 2025

Set parameter LogFile to value "log/instances/scenario4/not_correlated_sc4/500/kpfs_8.txt.log"

Gurobi 12.0.2 (linux64, C++) logging started Thu Jun 19 13:26:45 2025

Set parameter WLSAccessID
Set parameter WLSSecret
Set parameter LicenseID to value 2679381
Set parameter LogFile to value "log/instances/scenario4/not_correlated_sc4/500/kpfs_8.txt.log"
Academic license 2679381 - for non-commercial use only - registered to be___@poli.ufrj.br
Set parameter TimeLimit to value 1800
Set parameter Threads to value 1
Gurobi Optimizer version 12.0.2 build v12.0.2rc0 (linux64 - "Ubuntu 24.04.1 LTS")

CPU model: 13th Gen Intel(R) Core(TM) i7-1355U, instruction set [SSE2|AVX|AVX2]
Thread count: 6 physical cores, 12 logical processors, using up to 1 threads

Non-default parameters:
TimeLimit  1800
Threads  1

Academic license 2679381 - for non-commercial use only - registered to be___@poli.ufrj.br
Optimize a model with 1502 rows, 2000 columns and 24195 nonzeros
Model fingerprint: 0x37a39df6
Variable types: 0 continuous, 2000 integer (500 binary)
Coefficient statistics:
  Matrix range     [1e+00, 3e+01]
  Objective range  [1e+00, 3e+01]
  Bounds range     [1e+00, 2e+01]
  RHS range        [1e+00, 8e+02]
Found heuristic solution: objective 534.0000000
Presolve removed 0 rows and 49 columns
Presolve time: 0.11s
Presolved: 1502 rows, 1951 columns, 24097 nonzeros
Variable types: 0 continuous, 1951 integer (538 binary)

Root relaxation: objective 1.162760e+03, 1132 iterations, 0.29 seconds (0.10 work units)

    Nodes    |    Current Node    |     Objective Bounds      |     Work
 Expl Unexpl |  Obj  Depth IntInf | Incumbent    BestBd   Gap | It/Node Time

     0     0 1162.76035    0  176  534.00000 1162.76035   118%     -    2s
H    0     0                     821.0000000 1162.76035  41.6%     -    2s
H    0     0                     868.0000000 1162.76035  34.0%     -    2s
H    0     0                     906.0000000 1162.76035  28.3%     -    2s
H    0     0                     930.0000000 1162.76035  25.0%     -    2s
H    0     0                    1002.0000000 1162.76035  16.0%     -    2s
H    0     0                    1014.0000000 1162.76035  14.7%     -    2s
H    0     0                    1018.0000000 1162.76035  14.2%     -    2s
H    0     0                    1031.0000000 1162.76035  12.8%     -    2s
H    0     0                    1033.0000000 1162.76035  12.6%     -    2s
H    0     0                    1052.0000000 1162.76035  10.5%     -    2s
H    0     0                    1060.0000000 1162.76035  9.69%     -    2s
H    0     0                    1063.0000000 1162.76035  9.38%     -    2s
     0     0 1160.60216    0  173 1063.00000 1160.60216  9.18%     -    3s
H    0     0                    1065.0000000 1160.58731  8.98%     -    4s
H    0     0                    1070.0000000 1160.58731  8.47%     -    4s
     0     0 1160.14523    0  176 1070.00000 1160.14523  8.42%     -    5s
     0     0 1159.96557    0  185 1070.00000 1159.96557  8.41%     -    5s
     0     0 1159.95963    0  187 1070.00000 1159.95963  8.41%     -    5s
     0     0 1159.94609    0  184 1070.00000 1159.94609  8.41%     -    6s
     0     0 1159.90782    0  185 1070.00000 1159.90782  8.40%     -    6s
     0     0 1159.90782    0  185 1070.00000 1159.90782  8.40%     -    6s
     0     0 1159.81754    0  185 1070.00000 1159.81754  8.39%     -    6s
     0     0 1159.78986    0  184 1070.00000 1159.78986  8.39%     -    6s
     0     0 1159.78877    0  185 1070.00000 1159.78877  8.39%     -    6s
     0     0 1159.76480    0  185 1070.00000 1159.76480  8.39%     -    6s
     0     2 1159.39045    0  185 1070.00000 1159.39045  8.35%     -    7s
H  104   104                    1077.0000000 1154.76103  7.22%  53.0    9s
H  104   104                    1078.0000000 1154.76103  7.12%  53.0    9s
H  104   104                    1085.0000000 1154.76103  6.43%  53.0    9s
   155   149 1141.17508    5  167 1085.00000 1154.72409  6.43%  47.5   10s
H  425   373                    1087.0000000 1152.79153  6.05%  60.3   13s
H  425   357                    1090.0000000 1152.79153  5.76%  60.3   13s
H  425   318                    1096.0000000 1152.79153  5.18%  60.3   13s
H  425   302                    1098.0000000 1152.79153  4.99%  60.3   13s
H  425   257                    1103.0000000 1152.79153  4.51%  60.3   13s
   504   302 1137.35439   10  154 1103.00000 1151.05921  4.36%  64.0   15s
   588   370 1149.41144   19  165 1103.00000 1149.41144  4.21%  68.0   20s
   681   407 1129.55961   20  164 1103.00000 1149.41144  4.21%  73.1   25s
H  689   382                    1109.0000000 1149.41144  3.64%  73.4   28s
   700   390 1119.72607   30  151 1109.00000 1149.41144  3.64%  74.5   30s
   743   406 1113.95267   30  147 1109.00000 1149.41144  3.64%  77.0   35s
   896   446 1121.58986   22  148 1109.00000 1145.11809  3.26%  80.0   40s
  1118   507 1117.76761   30  153 1109.00000 1142.60120  3.03%  81.0   45s
  1298   528 1111.81109   25  139 1109.00000 1141.27368  2.91%  81.0   50s
H 1398   499                    1110.0000000 1140.59432  2.76%  79.1   53s
H 1398   426                    1114.0000000 1140.59432  2.39%  79.1   53s
  1490   427 1124.10499   24  150 1114.00000 1140.11583  2.34%  78.9   55s
  1797   508 1130.11088   27  158 1114.00000 1138.73975  2.22%  77.3   60s
H 1853   481                    1116.0000000 1138.39286  2.01%  76.9   61s
  2083   524 1123.76813   25  149 1116.00000 1136.67984  1.85%  75.6   65s
  2281   558 1129.54132   21  157 1116.00000 1135.91071  1.78%  74.9   70s
  2560   585     cutoff   29      1116.00000 1134.48209  1.66%  74.1   75s
  2760   609 1118.53337   26  146 1116.00000 1133.35830  1.56%  73.6   80s
  3023   619 1124.07212   25  143 1116.00000 1132.24646  1.46%  72.7   85s
  3401   633 1123.59149   20  152 1116.00000 1130.84735  1.33%  71.2   90s
  3791   626 1128.61469   23  167 1116.00000 1129.69296  1.23%  70.0   95s
  4168   614 1120.52417   28  156 1116.00000 1128.80664  1.15%  69.1  100s
  4350   601     cutoff   28      1116.00000 1128.34367  1.11%  68.8  105s
  4510   581 1119.05510   29  147 1116.00000 1127.77641  1.06%  68.5  110s
  4675   550 1119.27574   23  148 1116.00000 1127.14669  1.00%  68.2  116s
  4833   521     cutoff   23      1116.00000 1126.78994  0.97%  67.9  120s
  5118   455     cutoff   33      1116.00000 1125.64298  0.86%  67.5  125s
  5418   348     cutoff   22      1116.00000 1124.02160  0.72%  67.2  130s
  5599   262     cutoff   23      1116.00000 1122.73452  0.60%  66.8  135s
  5894    73     cutoff   28      1116.00000 1119.05993  0.27%  65.7  140s

Cutting planes:
  Gomory: 5
  MIR: 7
  Zero half: 9

Explored 5976 nodes (389879 simplex iterations) in 140.49 seconds (41.73 work units)
Thread count was 1 (of 12 available processors)

Solution count 10: 1116 1114 1110 ... 1085

Optimal solution found (tolerance 1.00e-04)
Best objective 1.116000000000e+03, best bound 1.116000000000e+03, gap 0.0000%
